GLPSOL--GLPK LP/MIP Solver 5.0
Parameter(s) specified in the command line:
 --model plan2.mod --output out/plan2.txt
Reading model section from plan2.mod...
Reading data section from plan2.mod...
129 lines were read
Generating satisfaction...
Generating at_least_one_sport...
Generating def_time_table...
Generating one_group_per_course...
Generating max_four_hours_per_day...
Generating lunch_break...
Generating no_plans_for_sr_pt...
Generating no_course_with_rating_below_five...
Model has been successfully generated
GLPK Integer Optimizer 5.0
260 rows, 263 columns, 651 non-zeros
263 integer variables, all of which are binary
Preprocessing...
1 hidden packing inequaliti(es) were detected
38 rows, 40 columns, 100 non-zeros
40 integer variables, all of which are binary
Scaling...
 A: min|aij| =  1.000e+00  max|aij| =  1.000e+00  ratio =  1.000e+00
Problem data seem to be well scaled
Constructing initial basis...
Size of triangular part is 38
Solving LP relaxation...
GLPK Simplex Optimizer 5.0
38 rows, 40 columns, 100 non-zeros
      0: obj =   3.100000000e+01 inf =   7.000e+00 (2)
      2: obj =   2.800000000e+01 inf =   0.000e+00 (0)
*     4: obj =   2.925000000e+01 inf =   0.000e+00 (0)
OPTIMAL LP SOLUTION FOUND
Integer optimization begins...
Long-step dual simplex will be used
+     4: mip =     not found yet <=              +inf        (1; 0)
Solution found by heuristic: 28
+     5: mip =   2.800000000e+01 <=     tree is empty   0.0% (0; 1)
INTEGER OPTIMAL SOLUTION FOUND
Time used:   0.0 secs
Memory used: 0.5 Mb (498330 bytes)

FUNKCJA CELU: 28

ZAPISANO NA KURSY
Algebra: I [(1) 13.000000-15.000000] <5>
Analiza: IV [(4) 8.000000-10.000000] <6>
Fizyka: II [(2) 10.000000-13.000000] <5>
Mineraly: III [(4) 13.000000-15.000000] <7>
Organiczna: II [(1) 10.500000-12.000000] <5>

SPORT
Pn 13-15: 0
Sr 11-13: 1
Sr 13-15: 0

Model has been successfully processed
Writing MIP solution to 'out/plan2.txt'...
